p cnf 906 2672
a 2 3 4 5 6 7 8 9 10 14 19 21 23 24 25 28 30 32 33 35 37 39 40 42 44 46 48 50 52 54 57 58 65 67 71 75 77 79 83 90 95 101 102 103 107 110 111 119 128 130 132 134 147 148 149 154 155 156 160 163 164 172 181 183 185 187 0
e 1 11 12 13 15 16 17 18 20 22 26 27 29 31 34 36 38 41 43 45 47 49 51 53 55 56 59 60 61 62 63 64 66 68 69 70 72 73 74 76 78 80 81 82 84 85 86 87 88 89 91 92 93 94 96 97 98 99 100 104 105 106 108 109 112 113 114 115 116 117 118 120 121 122 123 124 125 126 127 129 131 133 135 136 137 138 139 140 141 142 143 144 145 146 150 151 152 153 157 158 159 161 162 165 166 167 168 169 170 171 173 174 175 176 177 178 179 180 182 184 186 188 189 190 191 192 193 194 195 196 197 198 199 200 201 202 203 204 205 206 207 208 209 210 211 212 213 214 215 216 217 218 219 220 221 222 223 224 225 226 227 228 229 230 231 232 233 234 235 236 237 238 239 240 241 242 243 244 245 246 247 248 249 250 251 252 253 254 255 256 257 258 259 260 261 262 263 264 265 266 267 268 269 270 271 272 273 274 275 276 277 278 279 280 281 282 283 284 285 286 287 288 289 290 291 292 293 294 295 296 297 298 299 300 301 302 303 304 305 306 307 308 309 310 311 312 313 314 315 316 317 318 319 320 321 322 323 324 325 326 327 328 329 330 331 332 333 334 335 336 337 338 339 340 341 342 343 344 345 346 347 348 349 350 351 352 353 354 355 356 357 358 359 360 361 362 363 364 365 366 367 368 369 370 371 372 373 374 375 376 377 378 379 380 381 382 383 384 385 386 387 388 389 390 391 392 393 394 395 396 397 398 399 400 401 402 403 404 405 406 407 408 409 410 411 412 413 414 415 416 417 418 419 420 421 422 423 424 425 426 427 428 429 430 431 432 433 434 435 436 437 438 439 440 441 442 443 444 445 446 447 448 449 450 451 452 453 454 455 456 457 458 459 460 461 462 463 464 465 466 467 468 469 470 471 472 473 474 475 476 477 478 479 480 481 482 483 484 485 486 487 488 489 490 491 492 493 494 495 496 497 498 499 500 501 502 503 504 505 506 507 508 509 510 511 512 513 514 515 516 517 518 519 520 521 522 523 524 525 526 527 528 529 530 531 532 533 534 535 536 537 538 539 540 541 542 543 544 545 546 547 548 549 550 551 552 553 554 555 556 557 558 559 560 561 562 563 564 565 566 567 568 569 570 571 572 573 574 575 576 577 578 579 580 581 582 583 584 585 586 587 588 589 590 591 592 593 594 595 596 597 598 599 600 601 602 603 604 605 606 607 608 609 610 611 612 613 614 615 616 617 618 619 620 621 622 623 624 625 626 627 628 629 630 631 632 633 634 635 636 637 638 639 640 641 642 643 644 645 646 647 648 649 650 651 652 653 654 655 656 657 658 659 660 661 662 663 664 665 666 667 668 669 670 671 672 673 674 675 676 677 678 679 680 681 682 683 684 685 686 687 688 689 690 691 692 693 694 695 696 697 698 699 700 701 702 703 704 705 706 707 708 709 710 711 712 713 714 715 716 717 718 719 720 721 722 723 724 725 726 727 728 729 730 731 732 733 734 735 736 737 738 739 740 741 742 743 744 745 746 747 748 749 750 751 752 753 754 755 756 757 758 759 760 761 762 763 764 765 766 767 768 769 770 771 772 773 774 775 776 777 778 779 780 781 782 783 784 785 786 787 788 789 790 791 792 793 794 795 796 797 798 799 800 801 802 803 804 805 806 807 808 809 810 811 812 813 814 815 816 817 818 819 820 821 822 823 824 825 826 827 828 829 830 831 832 833 834 835 836 837 838 839 840 841 842 843 844 845 846 847 848 849 850 851 852 853 854 855 856 857 858 859 860 861 862 863 864 865 866 867 868 869 870 871 872 873 874 875 876 877 878 879 880 881 882 883 884 885 886 887 888 889 890 891 892 893 894 895 896 897 898 899 900 901 902 903 904 905 906 0
1 0
9 -11 0
10 -11 0
-9 -10 11 0
9 -12 0
-10 -12 0
-9 10 12 0
9 13 0
-11 13 0
-12 13 0
-9 11 12 -13 0
-14 15 0
14 15 0
8 -16 0
13 -16 0
15 -16 0
-8 -13 -15 16 0
-8 -17 0
13 -17 0
8 -13 17 0
-16 18 0
-17 18 0
16 17 -18 0
-19 20 0
19 20 0
-21 22 0
21 22 0
24 -26 0
-25 -26 0
-24 25 26 0
24 27 0
-26 27 0
-24 26 -27 0
-28 29 0
28 29 0
29 -31 0
30 -31 0
-29 -30 31 0
-33 34 0
33 34 0
34 -36 0
-35 -36 0
-34 35 36 0
34 -38 0
35 -38 0
37 -38 0
-34 -35 -37 38 0
34 -41 0
35 -41 0
-37 -41 0
39 -41 0
40 -41 0
-34 -35 37 -39 -40 41 0
34 -43 0
35 -43 0
-37 -43 0
39 -43 0
-40 -43 0
-42 -43 0
-34 -35 37 -39 40 42 43 0
34 -45 0
35 -45 0
-37 -45 0
-39 -45 0
-44 -45 0
-34 -35 37 39 44 45 0
34 -47 0
35 -47 0
-37 -47 0
-39 -47 0
44 -47 0
46 -47 0
-34 -35 37 39 -44 -46 47 0
34 -49 0
35 -49 0
-37 -49 0
39 -49 0
-40 -49 0
42 -49 0
48 -49 0
-34 -35 37 -39 40 -42 -48 49 0
34 -51 0
35 -51 0
-37 -51 0
39 -51 0
-40 -51 0
42 -51 0
-48 -51 0
50 -51 0
-34 -35 37 -39 40 -42 48 -50 51 0
-52 53 0
52 53 0
34 -55 0
35 -55 0
-37 -55 0
-39 -55 0
44 -55 0
-46 -55 0
53 -55 0
54 -55 0
-34 -35 37 39 -44 46 -53 -54 55 0
34 -56 0
35 -56 0
-37 -56 0
-39 -56 0
44 -56 0
-46 -56 0
53 -56 0
-54 -56 0
-34 -35 37 39 -44 46 -53 54 56 0
57 -59 0
58 -59 0
-57 -58 59 0
57 -60 0
-58 -60 0
-57 58 60 0
57 61 0
-59 61 0
-60 61 0
-57 59 60 -61 0
34 -62 0
35 -62 0
-37 -62 0
39 -62 0
-40 -62 0
42 -62 0
-48 -62 0
-50 -62 0
61 -62 0
-34 -35 37 -39 40 -42 48 50 -61 62 0
-36 63 0
-38 63 0
-41 63 0
-43 63 0
-45 63 0
-47 63 0
-49 63 0
-51 63 0
-55 63 0
-56 63 0
-62 63 0
36 38 41 43 45 47 49 51 55 56 62 -63 0
29 -64 0
-30 -64 0
-32 -64 0
63 -64 0
-29 30 32 -63 64 0
29 -66 0
-30 -66 0
32 -66 0
-65 -66 0
-29 30 -32 65 66 0
29 -68 0
-30 -68 0
32 -68 0
65 -68 0
-67 -68 0
-29 30 -32 -65 67 68 0
29 -69 0
-30 -69 0
32 -69 0
65 -69 0
67 -69 0
-29 30 -32 -65 -67 69 0
-64 70 0
-66 70 0
-68 70 0
-69 70 0
64 66 68 69 -70 0
70 -72 0
71 -72 0
-70 -71 72 0
70 -73 0
-71 -73 0
-70 71 73 0
-31 74 0
-72 74 0
-73 74 0
31 72 73 -74 0
-75 76 0
75 76 0
23 -78 0
27 -78 0
74 -78 0
76 -78 0
77 -78 0
-23 -27 -74 -76 -77 78 0
-79 80 0
79 80 0
23 -81 0
27 -81 0
74 -81 0
76 -81 0
-77 -81 0
80 -81 0
-23 -27 -74 -76 77 -80 81 0
-78 82 0
-81 82 0
78 81 -82 0
82 -84 0
83 -84 0
-82 -83 84 0
82 -85 0
-83 -85 0
-82 83 85 0
23 86 0
-84 86 0
-85 86 0
-23 84 85 -86 0
7 -87 0
18 -87 0
20 -87 0
22 -87 0
86 -87 0
-7 -18 -20 -22 -86 87 0
-7 -88 0
18 -88 0
20 -88 0
22 -88 0
7 -18 -20 -22 88 0
-87 89 0
-88 89 0
87 88 -89 0
90 91 0
-90 91 0
6 -92 0
89 -92 0
91 -92 0
-6 -89 -91 92 0
-6 -93 0
89 -93 0
6 -89 93 0
-92 94 0
-93 94 0
92 93 -94 0
95 96 0
-95 96 0
5 -97 0
94 -97 0
96 -97 0
-5 -94 -96 97 0
-5 -98 0
94 -98 0
5 -94 98 0
-97 99 0
-98 99 0
97 98 -99 0
4 -100 0
99 -100 0
-4 -99 100 0
103 -104 0
94 -104 0
96 -104 0
-103 -94 -96 104 0
-103 -105 0
94 -105 0
103 -94 105 0
-104 106 0
-105 106 0
104 105 -106 0
107 108 0
-107 108 0
102 -109 0
106 -109 0
108 -109 0
-102 -106 -108 109 0
111 112 0
-111 112 0
110 -113 0
106 -113 0
112 -113 0
-110 -106 -112 113 0
-110 -114 0
106 -114 0
110 -106 114 0
-113 115 0
-114 115 0
113 114 -115 0
-102 -116 0
115 -116 0
102 -115 116 0
-109 117 0
-116 117 0
109 116 -117 0
101 -118 0
117 -118 0
-101 -117 118 0
119 -120 0
94 -120 0
96 -120 0
-119 -94 -96 120 0
-119 -121 0
94 -121 0
119 -94 121 0
-120 122 0
-121 122 0
120 121 -122 0
-101 -123 0
122 -123 0
101 -122 123 0
-118 124 0
-123 124 0
118 123 -124 0
-4 -125 0
124 -125 0
4 -124 125 0
-100 126 0
-125 126 0
100 125 -126 0
3 -127 0
126 -127 0
-3 -126 127 0
128 -129 0
94 -129 0
96 -129 0
-128 -94 -96 129 0
130 -131 0
94 -131 0
96 -131 0
-130 -94 -96 131 0
132 -133 0
94 -133 0
96 -133 0
-132 -94 -96 133 0
134 -135 0
94 -135 0
96 -135 0
-134 -94 -96 135 0
-134 -136 0
94 -136 0
134 -94 136 0
-135 137 0
-136 137 0
135 136 -137 0
-132 -138 0
137 -138 0
132 -137 138 0
-133 139 0
-138 139 0
133 138 -139 0
-130 -140 0
139 -140 0
130 -139 140 0
-131 141 0
-140 141 0
131 140 -141 0
-128 -142 0
141 -142 0
128 -141 142 0
-129 143 0
-142 143 0
129 142 -143 0
-3 -144 0
143 -144 0
3 -143 144 0
-127 145 0
-144 145 0
127 144 -145 0
2 -146 0
145 -146 0
-2 -145 146 0
149 -150 0
89 -150 0
91 -150 0
-149 -89 -91 150 0
-149 -151 0
89 -151 0
149 -89 151 0
-150 152 0
-151 152 0
150 151 -152 0
148 -153 0
152 -153 0
-148 -152 153 0
156 -157 0
89 -157 0
91 -157 0
-156 -89 -91 157 0
-156 -158 0
89 -158 0
156 -89 158 0
-157 159 0
-158 159 0
157 158 -159 0
160 161 0
-160 161 0
155 -162 0
159 -162 0
161 -162 0
-155 -159 -161 162 0
164 165 0
-164 165 0
163 -166 0
159 -166 0
165 -166 0
-163 -159 -165 166 0
-163 -167 0
159 -167 0
163 -159 167 0
-166 168 0
-167 168 0
166 167 -168 0
-155 -169 0
168 -169 0
155 -168 169 0
-162 170 0
-169 170 0
162 169 -170 0
154 -171 0
170 -171 0
-154 -170 171 0
172 -173 0
89 -173 0
91 -173 0
-172 -89 -91 173 0
-172 -174 0
89 -174 0
172 -89 174 0
-173 175 0
-174 175 0
173 174 -175 0
-154 -176 0
175 -176 0
154 -175 176 0
-171 177 0
-176 177 0
171 176 -177 0
-148 -178 0
177 -178 0
148 -177 178 0
-153 179 0
-178 179 0
153 178 -179 0
147 -180 0
179 -180 0
-147 -179 180 0
181 -182 0
89 -182 0
91 -182 0
-181 -89 -91 182 0
183 -184 0
89 -184 0
91 -184 0
-183 -89 -91 184 0
185 -186 0
89 -186 0
91 -186 0
-185 -89 -91 186 0
187 -188 0
89 -188 0
91 -188 0
-187 -89 -91 188 0
-187 -189 0
89 -189 0
187 -89 189 0
-188 190 0
-189 190 0
188 189 -190 0
-185 -191 0
190 -191 0
185 -190 191 0
-186 192 0
-191 192 0
186 191 -192 0
-183 -193 0
192 -193 0
183 -192 193 0
-184 194 0
-193 194 0
184 193 -194 0
-181 -195 0
194 -195 0
181 -194 195 0
-182 196 0
-195 196 0
182 195 -196 0
-147 -197 0
196 -197 0
147 -196 197 0
-180 198 0
-197 198 0
180 197 -198 0
-2 -199 0
198 -199 0
2 -198 199 0
-146 200 0
-199 200 0
146 199 -200 0
-14 201 0
14 201 0
8 -202 0
201 -202 0
-8 -201 202 0
-202 203 0
8 203 0
202 -8 -203 0
203 -204 0
-23 -204 0
-203 23 204 0
203 -205 0
29 -205 0
30 -205 0
-203 -29 -30 205 0
203 -206 0
29 -206 0
-30 -206 0
32 -206 0
65 -206 0
-67 -206 0
-203 -29 30 -32 -65 67 206 0
203 -207 0
29 -207 0
-30 -207 0
32 -207 0
65 -207 0
67 -207 0
-203 -29 30 -32 -65 -67 207 0
203 -208 0
29 -208 0
-30 -208 0
32 -208 0
-65 -208 0
-203 -29 30 -32 65 208 0
203 -209 0
33 -209 0
-203 -33 209 0
203 -210 0
-33 -210 0
-203 33 210 0
-209 211 0
-210 211 0
209 210 -211 0
-36 212 0
-38 212 0
-41 212 0
-43 212 0
-45 212 0
-47 212 0
-49 212 0
-51 212 0
36 38 41 43 45 47 49 51 -212 0
211 -213 0
212 -213 0
-211 -212 213 0
211 -214 0
34 -214 0
35 -214 0
-37 -214 0
39 -214 0
-40 -214 0
42 -214 0
-48 -214 0
-50 -214 0
61 -214 0
-211 -34 -35 37 -39 40 -42 48 50 -61 214 0
-55 215 0
-56 215 0
55 56 -215 0
211 -216 0
215 -216 0
-211 -215 216 0
-213 217 0
-214 217 0
-216 217 0
213 214 216 -217 0
217 -218 0
29 -218 0
-30 -218 0
-32 -218 0
63 -218 0
-217 -29 30 32 -63 218 0
-206 219 0
-207 219 0
-208 219 0
-218 219 0
206 207 208 218 -219 0
219 -220 0
70 -220 0
71 -220 0
-219 -70 -71 220 0
219 -221 0
70 -221 0
-71 -221 0
-219 -70 71 221 0
-205 222 0
-220 222 0
-221 222 0
205 220 221 -222 0
222 -223 0
23 -223 0
27 -223 0
74 -223 0
76 -223 0
77 -223 0
-222 -23 -27 -74 -76 -77 223 0
222 -224 0
23 -224 0
27 -224 0
74 -224 0
76 -224 0
-77 -224 0
80 -224 0
-222 -23 -27 -74 -76 77 -80 224 0
-223 225 0
-224 225 0
223 224 -225 0
-84 226 0
-85 226 0
84 85 -226 0
225 -227 0
226 -227 0
-225 -226 227 0
-204 228 0
-227 228 0
204 227 -228 0
7 -229 0
228 -229 0
-7 -228 229 0
-7 -230 0
203 -230 0
7 -203 230 0
-229 231 0
-230 231 0
229 230 -231 0
231 -232 0
-90 -232 0
-231 90 232 0
231 -233 0
90 -233 0
-231 -90 233 0
-232 234 0
-233 234 0
232 233 -234 0
6 -235 0
234 -235 0
-6 -234 235 0
-6 -236 0
231 -236 0
6 -231 236 0
-235 237 0
-236 237 0
235 236 -237 0
237 -238 0
-95 -238 0
-237 95 238 0
237 -239 0
95 -239 0
-237 -95 239 0
-238 240 0
-239 240 0
238 239 -240 0
5 -241 0
240 -241 0
-5 -240 241 0
-5 -242 0
237 -242 0
5 -237 242 0
-241 243 0
-242 243 0
241 242 -243 0
4 -244 0
243 -244 0
-4 -243 244 0
103 -245 0
240 -245 0
-103 -240 245 0
-103 -246 0
237 -246 0
103 -237 246 0
-245 247 0
-246 247 0
245 246 -247 0
247 -248 0
-107 -248 0
-247 107 248 0
247 -249 0
107 -249 0
-247 -107 249 0
-248 250 0
-249 250 0
248 249 -250 0
102 -251 0
250 -251 0
-102 -250 251 0
247 -252 0
-111 -252 0
-247 111 252 0
247 -253 0
111 -253 0
-247 -111 253 0
-252 254 0
-253 254 0
252 253 -254 0
110 -255 0
254 -255 0
-110 -254 255 0
-110 -256 0
247 -256 0
110 -247 256 0
-255 257 0
-256 257 0
255 256 -257 0
-102 -258 0
257 -258 0
102 -257 258 0
-251 259 0
-258 259 0
251 258 -259 0
101 -260 0
259 -260 0
-101 -259 260 0
119 -261 0
240 -261 0
-119 -240 261 0
-119 -262 0
237 -262 0
119 -237 262 0
-261 263 0
-262 263 0
261 262 -263 0
-101 -264 0
263 -264 0
101 -263 264 0
-260 265 0
-264 265 0
260 264 -265 0
-4 -266 0
265 -266 0
4 -265 266 0
-244 267 0
-266 267 0
244 266 -267 0
3 -268 0
267 -268 0
-3 -267 268 0
128 -269 0
240 -269 0
-128 -240 269 0
130 -270 0
240 -270 0
-130 -240 270 0
132 -271 0
240 -271 0
-132 -240 271 0
134 -272 0
240 -272 0
-134 -240 272 0
-134 -273 0
237 -273 0
134 -237 273 0
-272 274 0
-273 274 0
272 273 -274 0
-132 -275 0
274 -275 0
132 -274 275 0
-271 276 0
-275 276 0
271 275 -276 0
-130 -277 0
276 -277 0
130 -276 277 0
-270 278 0
-277 278 0
270 277 -278 0
-128 -279 0
278 -279 0
128 -278 279 0
-269 280 0
-279 280 0
269 279 -280 0
-3 -281 0
280 -281 0
3 -280 281 0
-268 282 0
-281 282 0
268 281 -282 0
2 -283 0
282 -283 0
-2 -282 283 0
149 -284 0
234 -284 0
-149 -234 284 0
-149 -285 0
231 -285 0
149 -231 285 0
-284 286 0
-285 286 0
284 285 -286 0
148 -287 0
286 -287 0
-148 -286 287 0
156 -288 0
234 -288 0
-156 -234 288 0
-156 -289 0
231 -289 0
156 -231 289 0
-288 290 0
-289 290 0
288 289 -290 0
290 -291 0
-160 -291 0
-290 160 291 0
290 -292 0
160 -292 0
-290 -160 292 0
-291 293 0
-292 293 0
291 292 -293 0
155 -294 0
293 -294 0
-155 -293 294 0
290 -295 0
-164 -295 0
-290 164 295 0
290 -296 0
164 -296 0
-290 -164 296 0
-295 297 0
-296 297 0
295 296 -297 0
163 -298 0
297 -298 0
-163 -297 298 0
-163 -299 0
290 -299 0
163 -290 299 0
-298 300 0
-299 300 0
298 299 -300 0
-155 -301 0
300 -301 0
155 -300 301 0
-294 302 0
-301 302 0
294 301 -302 0
154 -303 0
302 -303 0
-154 -302 303 0
172 -304 0
234 -304 0
-172 -234 304 0
-172 -305 0
231 -305 0
172 -231 305 0
-304 306 0
-305 306 0
304 305 -306 0
-154 -307 0
306 -307 0
154 -306 307 0
-303 308 0
-307 308 0
303 307 -308 0
-148 -309 0
308 -309 0
148 -308 309 0
-287 310 0
-309 310 0
287 309 -310 0
147 -311 0
310 -311 0
-147 -310 311 0
181 -312 0
234 -312 0
-181 -234 312 0
183 -313 0
234 -313 0
-183 -234 313 0
185 -314 0
234 -314 0
-185 -234 314 0
187 -315 0
234 -315 0
-187 -234 315 0
-187 -316 0
231 -316 0
187 -231 316 0
-315 317 0
-316 317 0
315 316 -317 0
-185 -318 0
317 -318 0
185 -317 318 0
-314 319 0
-318 319 0
314 318 -319 0
-183 -320 0
319 -320 0
183 -319 320 0
-313 321 0
-320 321 0
313 320 -321 0
-181 -322 0
321 -322 0
181 -321 322 0
-312 323 0
-322 323 0
312 322 -323 0
-147 -324 0
323 -324 0
147 -323 324 0
-311 325 0
-324 325 0
311 324 -325 0
-2 -326 0
325 -326 0
2 -325 326 0
-283 327 0
-326 327 0
283 326 -327 0
-14 328 0
14 328 0
8 -329 0
328 -329 0
-8 -328 329 0
-329 330 0
8 330 0
329 -8 -330 0
330 -331 0
-23 -331 0
-330 23 331 0
330 -332 0
29 -332 0
30 -332 0
-330 -29 -30 332 0
330 -333 0
29 -333 0
-30 -333 0
32 -333 0
65 -333 0
-67 -333 0
-330 -29 30 -32 -65 67 333 0
330 -334 0
29 -334 0
-30 -334 0
32 -334 0
65 -334 0
67 -334 0
-330 -29 30 -32 -65 -67 334 0
330 -335 0
29 -335 0
-30 -335 0
32 -335 0
-65 -335 0
-330 -29 30 -32 65 335 0
330 -336 0
33 -336 0
-330 -33 336 0
330 -337 0
-33 -337 0
-330 33 337 0
-336 338 0
-337 338 0
336 337 -338 0
-36 339 0
-38 339 0
-41 339 0
-43 339 0
-45 339 0
-47 339 0
-49 339 0
-51 339 0
36 38 41 43 45 47 49 51 -339 0
338 -340 0
339 -340 0
-338 -339 340 0
338 -341 0
34 -341 0
35 -341 0
-37 -341 0
39 -341 0
-40 -341 0
42 -341 0
-48 -341 0
-50 -341 0
61 -341 0
-338 -34 -35 37 -39 40 -42 48 50 -61 341 0
338 -342 0
215 -342 0
-338 -215 342 0
-340 343 0
-341 343 0
-342 343 0
340 341 342 -343 0
343 -344 0
29 -344 0
-30 -344 0
-32 -344 0
63 -344 0
-343 -29 30 32 -63 344 0
-333 345 0
-334 345 0
-335 345 0
-344 345 0
333 334 335 344 -345 0
345 -346 0
70 -346 0
71 -346 0
-345 -70 -71 346 0
345 -347 0
70 -347 0
-71 -347 0
-345 -70 71 347 0
-332 348 0
-346 348 0
-347 348 0
332 346 347 -348 0
348 -349 0
23 -349 0
27 -349 0
74 -349 0
76 -349 0
77 -349 0
-348 -23 -27 -74 -76 -77 349 0
348 -350 0
23 -350 0
27 -350 0
74 -350 0
76 -350 0
-77 -350 0
80 -350 0
-348 -23 -27 -74 -76 77 -80 350 0
-349 351 0
-350 351 0
349 350 -351 0
351 -352 0
226 -352 0
-351 -226 352 0
-331 353 0
-352 353 0
331 352 -353 0
7 -354 0
353 -354 0
-7 -353 354 0
-7 -355 0
330 -355 0
7 -330 355 0
-354 356 0
-355 356 0
354 355 -356 0
356 -357 0
-90 -357 0
-356 90 357 0
356 -358 0
90 -358 0
-356 -90 358 0
-357 359 0
-358 359 0
357 358 -359 0
6 -360 0
359 -360 0
-6 -359 360 0
-6 -361 0
356 -361 0
6 -356 361 0
-360 362 0
-361 362 0
360 361 -362 0
362 -363 0
-95 -363 0
-362 95 363 0
362 -364 0
95 -364 0
-362 -95 364 0
-363 365 0
-364 365 0
363 364 -365 0
5 -366 0
365 -366 0
-5 -365 366 0
-5 -367 0
362 -367 0
5 -362 367 0
-366 368 0
-367 368 0
366 367 -368 0
4 -369 0
368 -369 0
-4 -368 369 0
103 -370 0
365 -370 0
-103 -365 370 0
-103 -371 0
362 -371 0
103 -362 371 0
-370 372 0
-371 372 0
370 371 -372 0
372 -373 0
-107 -373 0
-372 107 373 0
372 -374 0
107 -374 0
-372 -107 374 0
-373 375 0
-374 375 0
373 374 -375 0
102 -376 0
375 -376 0
-102 -375 376 0
372 -377 0
-111 -377 0
-372 111 377 0
372 -378 0
111 -378 0
-372 -111 378 0
-377 379 0
-378 379 0
377 378 -379 0
110 -380 0
379 -380 0
-110 -379 380 0
-110 -381 0
372 -381 0
110 -372 381 0
-380 382 0
-381 382 0
380 381 -382 0
-102 -383 0
382 -383 0
102 -382 383 0
-376 384 0
-383 384 0
376 383 -384 0
101 -385 0
384 -385 0
-101 -384 385 0
119 -386 0
365 -386 0
-119 -365 386 0
-119 -387 0
362 -387 0
119 -362 387 0
-386 388 0
-387 388 0
386 387 -388 0
-101 -389 0
388 -389 0
101 -388 389 0
-385 390 0
-389 390 0
385 389 -390 0
-4 -391 0
390 -391 0
4 -390 391 0
-369 392 0
-391 392 0
369 391 -392 0
3 -393 0
392 -393 0
-3 -392 393 0
128 -394 0
365 -394 0
-128 -365 394 0
130 -395 0
365 -395 0
-130 -365 395 0
132 -396 0
365 -396 0
-132 -365 396 0
134 -397 0
365 -397 0
-134 -365 397 0
-134 -398 0
362 -398 0
134 -362 398 0
-397 399 0
-398 399 0
397 398 -399 0
-132 -400 0
399 -400 0
132 -399 400 0
-396 401 0
-400 401 0
396 400 -401 0
-130 -402 0
401 -402 0
130 -401 402 0
-395 403 0
-402 403 0
395 402 -403 0
-128 -404 0
403 -404 0
128 -403 404 0
-394 405 0
-404 405 0
394 404 -405 0
-3 -406 0
405 -406 0
3 -405 406 0
-393 407 0
-406 407 0
393 406 -407 0
2 -408 0
407 -408 0
-2 -407 408 0
149 -409 0
359 -409 0
-149 -359 409 0
-149 -410 0
356 -410 0
149 -356 410 0
-409 411 0
-410 411 0
409 410 -411 0
148 -412 0
411 -412 0
-148 -411 412 0
156 -413 0
359 -413 0
-156 -359 413 0
-156 -414 0
356 -414 0
156 -356 414 0
-413 415 0
-414 415 0
413 414 -415 0
415 -416 0
-160 -416 0
-415 160 416 0
415 -417 0
160 -417 0
-415 -160 417 0
-416 418 0
-417 418 0
416 417 -418 0
155 -419 0
418 -419 0
-155 -418 419 0
415 -420 0
-164 -420 0
-415 164 420 0
415 -421 0
164 -421 0
-415 -164 421 0
-420 422 0
-421 422 0
420 421 -422 0
163 -423 0
422 -423 0
-163 -422 423 0
-163 -424 0
415 -424 0
163 -415 424 0
-423 425 0
-424 425 0
423 424 -425 0
-155 -426 0
425 -426 0
155 -425 426 0
-419 427 0
-426 427 0
419 426 -427 0
154 -428 0
427 -428 0
-154 -427 428 0
172 -429 0
359 -429 0
-172 -359 429 0
-172 -430 0
356 -430 0
172 -356 430 0
-429 431 0
-430 431 0
429 430 -431 0
-154 -432 0
431 -432 0
154 -431 432 0
-428 433 0
-432 433 0
428 432 -433 0
-148 -434 0
433 -434 0
148 -433 434 0
-412 435 0
-434 435 0
412 434 -435 0
147 -436 0
435 -436 0
-147 -435 436 0
181 -437 0
359 -437 0
-181 -359 437 0
183 -438 0
359 -438 0
-183 -359 438 0
185 -439 0
359 -439 0
-185 -359 439 0
187 -440 0
359 -440 0
-187 -359 440 0
-187 -441 0
356 -441 0
187 -356 441 0
-440 442 0
-441 442 0
440 441 -442 0
-185 -443 0
442 -443 0
185 -442 443 0
-439 444 0
-443 444 0
439 443 -444 0
-183 -445 0
444 -445 0
183 -444 445 0
-438 446 0
-445 446 0
438 445 -446 0
-181 -447 0
446 -447 0
181 -446 447 0
-437 448 0
-447 448 0
437 447 -448 0
-147 -449 0
448 -449 0
147 -448 449 0
-436 450 0
-449 450 0
436 449 -450 0
-2 -451 0
450 -451 0
2 -450 451 0
-408 452 0
-451 452 0
408 451 -452 0
460 -462 0
461 -462 0
-460 -461 462 0
460 -463 0
-461 -463 0
-460 461 463 0
460 464 0
-462 464 0
-463 464 0
-460 462 463 -464 0
-465 466 0
465 466 0
459 -467 0
464 -467 0
466 -467 0
-459 -464 -466 467 0
-459 -468 0
464 -468 0
459 -464 468 0
-467 469 0
-468 469 0
467 468 -469 0
-470 471 0
470 471 0
-472 473 0
472 473 0
475 -477 0
-476 -477 0
-475 476 477 0
475 478 0
-477 478 0
-475 477 -478 0
-479 480 0
479 480 0
480 -482 0
481 -482 0
-480 -481 482 0
-484 485 0
484 485 0
485 -487 0
-486 -487 0
-485 486 487 0
485 -489 0
486 -489 0
488 -489 0
-485 -486 -488 489 0
485 -492 0
486 -492 0
-488 -492 0
490 -492 0
491 -492 0
-485 -486 488 -490 -491 492 0
485 -494 0
486 -494 0
-488 -494 0
490 -494 0
-491 -494 0
-493 -494 0
-485 -486 488 -490 491 493 494 0
485 -496 0
486 -496 0
-488 -496 0
-490 -496 0
-495 -496 0
-485 -486 488 490 495 496 0
485 -498 0
486 -498 0
-488 -498 0
-490 -498 0
495 -498 0
497 -498 0
-485 -486 488 490 -495 -497 498 0
485 -500 0
486 -500 0
-488 -500 0
490 -500 0
-491 -500 0
493 -500 0
499 -500 0
-485 -486 488 -490 491 -493 -499 500 0
485 -502 0
486 -502 0
-488 -502 0
490 -502 0
-491 -502 0
493 -502 0
-499 -502 0
501 -502 0
-485 -486 488 -490 491 -493 499 -501 502 0
-503 504 0
503 504 0
485 -506 0
486 -506 0
-488 -506 0
-490 -506 0
495 -506 0
-497 -506 0
504 -506 0
505 -506 0
-485 -486 488 490 -495 497 -504 -505 506 0
485 -507 0
486 -507 0
-488 -507 0
-490 -507 0
495 -507 0
-497 -507 0
504 -507 0
-505 -507 0
-485 -486 488 490 -495 497 -504 505 507 0
508 -510 0
509 -510 0
-508 -509 510 0
508 -511 0
-509 -511 0
-508 509 511 0
508 512 0
-510 512 0
-511 512 0
-508 510 511 -512 0
485 -513 0
486 -513 0
-488 -513 0
490 -513 0
-491 -513 0
493 -513 0
-499 -513 0
-501 -513 0
512 -513 0
-485 -486 488 -490 491 -493 499 501 -512 513 0
-487 514 0
-489 514 0
-492 514 0
-494 514 0
-496 514 0
-498 514 0
-500 514 0
-502 514 0
-506 514 0
-507 514 0
-513 514 0
487 489 492 494 496 498 500 502 506 507 513 -514 0
480 -515 0
-481 -515 0
-483 -515 0
514 -515 0
-480 481 483 -514 515 0
480 -517 0
-481 -517 0
483 -517 0
-516 -517 0
-480 481 -483 516 517 0
480 -519 0
-481 -519 0
483 -519 0
516 -519 0
-518 -519 0
-480 481 -483 -516 518 519 0
480 -520 0
-481 -520 0
483 -520 0
516 -520 0
518 -520 0
-480 481 -483 -516 -518 520 0
-515 521 0
-517 521 0
-519 521 0
-520 521 0
515 517 519 520 -521 0
521 -523 0
522 -523 0
-521 -522 523 0
521 -524 0
-522 -524 0
-521 522 524 0
-482 525 0
-523 525 0
-524 525 0
482 523 524 -525 0
-526 527 0
526 527 0
474 -529 0
478 -529 0
525 -529 0
527 -529 0
528 -529 0
-474 -478 -525 -527 -528 529 0
-530 531 0
530 531 0
474 -532 0
478 -532 0
525 -532 0
527 -532 0
-528 -532 0
531 -532 0
-474 -478 -525 -527 528 -531 532 0
-529 533 0
-532 533 0
529 532 -533 0
533 -535 0
534 -535 0
-533 -534 535 0
533 -536 0
-534 -536 0
-533 534 536 0
474 537 0
-535 537 0
-536 537 0
-474 535 536 -537 0
458 -538 0
469 -538 0
471 -538 0
473 -538 0
537 -538 0
-458 -469 -471 -473 -537 538 0
-458 -539 0
469 -539 0
471 -539 0
473 -539 0
458 -469 -471 -473 539 0
-538 540 0
-539 540 0
538 539 -540 0
541 542 0
-541 542 0
457 -543 0
540 -543 0
542 -543 0
-457 -540 -542 543 0
-457 -544 0
540 -544 0
457 -540 544 0
-543 545 0
-544 545 0
543 544 -545 0
546 547 0
-546 547 0
456 -548 0
545 -548 0
547 -548 0
-456 -545 -547 548 0
-456 -549 0
545 -549 0
456 -545 549 0
-548 550 0
-549 550 0
548 549 -550 0
455 -551 0
550 -551 0
-455 -550 551 0
554 -555 0
545 -555 0
547 -555 0
-554 -545 -547 555 0
-554 -556 0
545 -556 0
554 -545 556 0
-555 557 0
-556 557 0
555 556 -557 0
558 559 0
-558 559 0
553 -560 0
557 -560 0
559 -560 0
-553 -557 -559 560 0
562 563 0
-562 563 0
561 -564 0
557 -564 0
563 -564 0
-561 -557 -563 564 0
-561 -565 0
557 -565 0
561 -557 565 0
-564 566 0
-565 566 0
564 565 -566 0
-553 -567 0
566 -567 0
553 -566 567 0
-560 568 0
-567 568 0
560 567 -568 0
552 -569 0
568 -569 0
-552 -568 569 0
570 -571 0
545 -571 0
547 -571 0
-570 -545 -547 571 0
-570 -572 0
545 -572 0
570 -545 572 0
-571 573 0
-572 573 0
571 572 -573 0
-552 -574 0
573 -574 0
552 -573 574 0
-569 575 0
-574 575 0
569 574 -575 0
-455 -576 0
575 -576 0
455 -575 576 0
-551 577 0
-576 577 0
551 576 -577 0
454 -578 0
577 -578 0
-454 -577 578 0
579 -580 0
545 -580 0
547 -580 0
-579 -545 -547 580 0
581 -582 0
545 -582 0
547 -582 0
-581 -545 -547 582 0
583 -584 0
545 -584 0
547 -584 0
-583 -545 -547 584 0
585 -586 0
545 -586 0
547 -586 0
-585 -545 -547 586 0
-585 -587 0
545 -587 0
585 -545 587 0
-586 588 0
-587 588 0
586 587 -588 0
-583 -589 0
588 -589 0
583 -588 589 0
-584 590 0
-589 590 0
584 589 -590 0
-581 -591 0
590 -591 0
581 -590 591 0
-582 592 0
-591 592 0
582 591 -592 0
-579 -593 0
592 -593 0
579 -592 593 0
-580 594 0
-593 594 0
580 593 -594 0
-454 -595 0
594 -595 0
454 -594 595 0
-578 596 0
-595 596 0
578 595 -596 0
453 -597 0
596 -597 0
-453 -596 597 0
600 -601 0
540 -601 0
542 -601 0
-600 -540 -542 601 0
-600 -602 0
540 -602 0
600 -540 602 0
-601 603 0
-602 603 0
601 602 -603 0
599 -604 0
603 -604 0
-599 -603 604 0
607 -608 0
540 -608 0
542 -608 0
-607 -540 -542 608 0
-607 -609 0
540 -609 0
607 -540 609 0
-608 610 0
-609 610 0
608 609 -610 0
611 612 0
-611 612 0
606 -613 0
610 -613 0
612 -613 0
-606 -610 -612 613 0
615 616 0
-615 616 0
614 -617 0
610 -617 0
616 -617 0
-614 -610 -616 617 0
-614 -618 0
610 -618 0
614 -610 618 0
-617 619 0
-618 619 0
617 618 -619 0
-606 -620 0
619 -620 0
606 -619 620 0
-613 621 0
-620 621 0
613 620 -621 0
605 -622 0
621 -622 0
-605 -621 622 0
623 -624 0
540 -624 0
542 -624 0
-623 -540 -542 624 0
-623 -625 0
540 -625 0
623 -540 625 0
-624 626 0
-625 626 0
624 625 -626 0
-605 -627 0
626 -627 0
605 -626 627 0
-622 628 0
-627 628 0
622 627 -628 0
-599 -629 0
628 -629 0
599 -628 629 0
-604 630 0
-629 630 0
604 629 -630 0
598 -631 0
630 -631 0
-598 -630 631 0
632 -633 0
540 -633 0
542 -633 0
-632 -540 -542 633 0
634 -635 0
540 -635 0
542 -635 0
-634 -540 -542 635 0
636 -637 0
540 -637 0
542 -637 0
-636 -540 -542 637 0
638 -639 0
540 -639 0
542 -639 0
-638 -540 -542 639 0
-638 -640 0
540 -640 0
638 -540 640 0
-639 641 0
-640 641 0
639 640 -641 0
-636 -642 0
641 -642 0
636 -641 642 0
-637 643 0
-642 643 0
637 642 -643 0
-634 -644 0
643 -644 0
634 -643 644 0
-635 645 0
-644 645 0
635 644 -645 0
-632 -646 0
645 -646 0
632 -645 646 0
-633 647 0
-646 647 0
633 646 -647 0
-598 -648 0
647 -648 0
598 -647 648 0
-631 649 0
-648 649 0
631 648 -649 0
-453 -650 0
649 -650 0
453 -649 650 0
-597 651 0
-650 651 0
597 650 -651 0
-465 652 0
465 652 0
459 -653 0
652 -653 0
-459 -652 653 0
-653 654 0
459 654 0
653 -459 -654 0
654 -655 0
-474 -655 0
-654 474 655 0
654 -656 0
480 -656 0
481 -656 0
-654 -480 -481 656 0
654 -657 0
480 -657 0
-481 -657 0
483 -657 0
516 -657 0
-518 -657 0
-654 -480 481 -483 -516 518 657 0
654 -658 0
480 -658 0
-481 -658 0
483 -658 0
516 -658 0
518 -658 0
-654 -480 481 -483 -516 -518 658 0
654 -659 0
480 -659 0
-481 -659 0
483 -659 0
-516 -659 0
-654 -480 481 -483 516 659 0
654 -660 0
484 -660 0
-654 -484 660 0
654 -661 0
-484 -661 0
-654 484 661 0
-660 662 0
-661 662 0
660 661 -662 0
-487 663 0
-489 663 0
-492 663 0
-494 663 0
-496 663 0
-498 663 0
-500 663 0
-502 663 0
487 489 492 494 496 498 500 502 -663 0
662 -664 0
663 -664 0
-662 -663 664 0
662 -665 0
485 -665 0
486 -665 0
-488 -665 0
490 -665 0
-491 -665 0
493 -665 0
-499 -665 0
-501 -665 0
512 -665 0
-662 -485 -486 488 -490 491 -493 499 501 -512 665 0
-506 666 0
-507 666 0
506 507 -666 0
662 -667 0
666 -667 0
-662 -666 667 0
-664 668 0
-665 668 0
-667 668 0
664 665 667 -668 0
668 -669 0
480 -669 0
-481 -669 0
-483 -669 0
514 -669 0
-668 -480 481 483 -514 669 0
-657 670 0
-658 670 0
-659 670 0
-669 670 0
657 658 659 669 -670 0
670 -671 0
521 -671 0
522 -671 0
-670 -521 -522 671 0
670 -672 0
521 -672 0
-522 -672 0
-670 -521 522 672 0
-656 673 0
-671 673 0
-672 673 0
656 671 672 -673 0
673 -674 0
474 -674 0
478 -674 0
525 -674 0
527 -674 0
528 -674 0
-673 -474 -478 -525 -527 -528 674 0
673 -675 0
474 -675 0
478 -675 0
525 -675 0
527 -675 0
-528 -675 0
531 -675 0
-673 -474 -478 -525 -527 528 -531 675 0
-674 676 0
-675 676 0
674 675 -676 0
-535 677 0
-536 677 0
535 536 -677 0
676 -678 0
677 -678 0
-676 -677 678 0
-655 679 0
-678 679 0
655 678 -679 0
458 -680 0
679 -680 0
-458 -679 680 0
-458 -681 0
654 -681 0
458 -654 681 0
-680 682 0
-681 682 0
680 681 -682 0
682 -683 0
-541 -683 0
-682 541 683 0
682 -684 0
541 -684 0
-682 -541 684 0
-683 685 0
-684 685 0
683 684 -685 0
457 -686 0
685 -686 0
-457 -685 686 0
-457 -687 0
682 -687 0
457 -682 687 0
-686 688 0
-687 688 0
686 687 -688 0
688 -689 0
-546 -689 0
-688 546 689 0
688 -690 0
546 -690 0
-688 -546 690 0
-689 691 0
-690 691 0
689 690 -691 0
456 -692 0
691 -692 0
-456 -691 692 0
-456 -693 0
688 -693 0
456 -688 693 0
-692 694 0
-693 694 0
692 693 -694 0
455 -695 0
694 -695 0
-455 -694 695 0
554 -696 0
691 -696 0
-554 -691 696 0
-554 -697 0
688 -697 0
554 -688 697 0
-696 698 0
-697 698 0
696 697 -698 0
698 -699 0
-558 -699 0
-698 558 699 0
698 -700 0
558 -700 0
-698 -558 700 0
-699 701 0
-700 701 0
699 700 -701 0
553 -702 0
701 -702 0
-553 -701 702 0
698 -703 0
-562 -703 0
-698 562 703 0
698 -704 0
562 -704 0
-698 -562 704 0
-703 705 0
-704 705 0
703 704 -705 0
561 -706 0
705 -706 0
-561 -705 706 0
-561 -707 0
698 -707 0
561 -698 707 0
-706 708 0
-707 708 0
706 707 -708 0
-553 -709 0
708 -709 0
553 -708 709 0
-702 710 0
-709 710 0
702 709 -710 0
552 -711 0
710 -711 0
-552 -710 711 0
570 -712 0
691 -712 0
-570 -691 712 0
-570 -713 0
688 -713 0
570 -688 713 0
-712 714 0
-713 714 0
712 713 -714 0
-552 -715 0
714 -715 0
552 -714 715 0
-711 716 0
-715 716 0
711 715 -716 0
-455 -717 0
716 -717 0
455 -716 717 0
-695 718 0
-717 718 0
695 717 -718 0
454 -719 0
718 -719 0
-454 -718 719 0
579 -720 0
691 -720 0
-579 -691 720 0
581 -721 0
691 -721 0
-581 -691 721 0
583 -722 0
691 -722 0
-583 -691 722 0
585 -723 0
691 -723 0
-585 -691 723 0
-585 -724 0
688 -724 0
585 -688 724 0
-723 725 0
-724 725 0
723 724 -725 0
-583 -726 0
725 -726 0
583 -725 726 0
-722 727 0
-726 727 0
722 726 -727 0
-581 -728 0
727 -728 0
581 -727 728 0
-721 729 0
-728 729 0
721 728 -729 0
-579 -730 0
729 -730 0
579 -729 730 0
-720 731 0
-730 731 0
720 730 -731 0
-454 -732 0
731 -732 0
454 -731 732 0
-719 733 0
-732 733 0
719 732 -733 0
453 -734 0
733 -734 0
-453 -733 734 0
600 -735 0
685 -735 0
-600 -685 735 0
-600 -736 0
682 -736 0
600 -682 736 0
-735 737 0
-736 737 0
735 736 -737 0
599 -738 0
737 -738 0
-599 -737 738 0
607 -739 0
685 -739 0
-607 -685 739 0
-607 -740 0
682 -740 0
607 -682 740 0
-739 741 0
-740 741 0
739 740 -741 0
741 -742 0
-611 -742 0
-741 611 742 0
741 -743 0
611 -743 0
-741 -611 743 0
-742 744 0
-743 744 0
742 743 -744 0
606 -745 0
744 -745 0
-606 -744 745 0
741 -746 0
-615 -746 0
-741 615 746 0
741 -747 0
615 -747 0
-741 -615 747 0
-746 748 0
-747 748 0
746 747 -748 0
614 -749 0
748 -749 0
-614 -748 749 0
-614 -750 0
741 -750 0
614 -741 750 0
-749 751 0
-750 751 0
749 750 -751 0
-606 -752 0
751 -752 0
606 -751 752 0
-745 753 0
-752 753 0
745 752 -753 0
605 -754 0
753 -754 0
-605 -753 754 0
623 -755 0
685 -755 0
-623 -685 755 0
-623 -756 0
682 -756 0
623 -682 756 0
-755 757 0
-756 757 0
755 756 -757 0
-605 -758 0
757 -758 0
605 -757 758 0
-754 759 0
-758 759 0
754 758 -759 0
-599 -760 0
759 -760 0
599 -759 760 0
-738 761 0
-760 761 0
738 760 -761 0
598 -762 0
761 -762 0
-598 -761 762 0
632 -763 0
685 -763 0
-632 -685 763 0
634 -764 0
685 -764 0
-634 -685 764 0
636 -765 0
685 -765 0
-636 -685 765 0
638 -766 0
685 -766 0
-638 -685 766 0
-638 -767 0
682 -767 0
638 -682 767 0
-766 768 0
-767 768 0
766 767 -768 0
-636 -769 0
768 -769 0
636 -768 769 0
-765 770 0
-769 770 0
765 769 -770 0
-634 -771 0
770 -771 0
634 -770 771 0
-764 772 0
-771 772 0
764 771 -772 0
-632 -773 0
772 -773 0
632 -772 773 0
-763 774 0
-773 774 0
763 773 -774 0
-598 -775 0
774 -775 0
598 -774 775 0
-762 776 0
-775 776 0
762 775 -776 0
-453 -777 0
776 -777 0
453 -776 777 0
-734 778 0
-777 778 0
734 777 -778 0
-465 779 0
465 779 0
459 -780 0
779 -780 0
-459 -779 780 0
-780 781 0
459 781 0
780 -459 -781 0
781 -782 0
-474 -782 0
-781 474 782 0
781 -783 0
480 -783 0
481 -783 0
-781 -480 -481 783 0
781 -784 0
480 -784 0
-481 -784 0
483 -784 0
516 -784 0
-518 -784 0
-781 -480 481 -483 -516 518 784 0
781 -785 0
480 -785 0
-481 -785 0
483 -785 0
516 -785 0
518 -785 0
-781 -480 481 -483 -516 -518 785 0
781 -786 0
480 -786 0
-481 -786 0
483 -786 0
-516 -786 0
-781 -480 481 -483 516 786 0
781 -787 0
484 -787 0
-781 -484 787 0
781 -788 0
-484 -788 0
-781 484 788 0
-787 789 0
-788 789 0
787 788 -789 0
-487 790 0
-489 790 0
-492 790 0
-494 790 0
-496 790 0
-498 790 0
-500 790 0
-502 790 0
487 489 492 494 496 498 500 502 -790 0
789 -791 0
790 -791 0
-789 -790 791 0
789 -792 0
485 -792 0
486 -792 0
-488 -792 0
490 -792 0
-491 -792 0
493 -792 0
-499 -792 0
-501 -792 0
512 -792 0
-789 -485 -486 488 -490 491 -493 499 501 -512 792 0
789 -793 0
666 -793 0
-789 -666 793 0
-791 794 0
-792 794 0
-793 794 0
791 792 793 -794 0
794 -795 0
480 -795 0
-481 -795 0
-483 -795 0
514 -795 0
-794 -480 481 483 -514 795 0
-784 796 0
-785 796 0
-786 796 0
-795 796 0
784 785 786 795 -796 0
796 -797 0
521 -797 0
522 -797 0
-796 -521 -522 797 0
796 -798 0
521 -798 0
-522 -798 0
-796 -521 522 798 0
-783 799 0
-797 799 0
-798 799 0
783 797 798 -799 0
799 -800 0
474 -800 0
478 -800 0
525 -800 0
527 -800 0
528 -800 0
-799 -474 -478 -525 -527 -528 800 0
799 -801 0
474 -801 0
478 -801 0
525 -801 0
527 -801 0
-528 -801 0
531 -801 0
-799 -474 -478 -525 -527 528 -531 801 0
-800 802 0
-801 802 0
800 801 -802 0
802 -803 0
677 -803 0
-802 -677 803 0
-782 804 0
-803 804 0
782 803 -804 0
458 -805 0
804 -805 0
-458 -804 805 0
-458 -806 0
781 -806 0
458 -781 806 0
-805 807 0
-806 807 0
805 806 -807 0
807 -808 0
-541 -808 0
-807 541 808 0
807 -809 0
541 -809 0
-807 -541 809 0
-808 810 0
-809 810 0
808 809 -810 0
457 -811 0
810 -811 0
-457 -810 811 0
-457 -812 0
807 -812 0
457 -807 812 0
-811 813 0
-812 813 0
811 812 -813 0
813 -814 0
-546 -814 0
-813 546 814 0
813 -815 0
546 -815 0
-813 -546 815 0
-814 816 0
-815 816 0
814 815 -816 0
456 -817 0
816 -817 0
-456 -816 817 0
-456 -818 0
813 -818 0
456 -813 818 0
-817 819 0
-818 819 0
817 818 -819 0
455 -820 0
819 -820 0
-455 -819 820 0
554 -821 0
816 -821 0
-554 -816 821 0
-554 -822 0
813 -822 0
554 -813 822 0
-821 823 0
-822 823 0
821 822 -823 0
823 -824 0
-558 -824 0
-823 558 824 0
823 -825 0
558 -825 0
-823 -558 825 0
-824 826 0
-825 826 0
824 825 -826 0
553 -827 0
826 -827 0
-553 -826 827 0
823 -828 0
-562 -828 0
-823 562 828 0
823 -829 0
562 -829 0
-823 -562 829 0
-828 830 0
-829 830 0
828 829 -830 0
561 -831 0
830 -831 0
-561 -830 831 0
-561 -832 0
823 -832 0
561 -823 832 0
-831 833 0
-832 833 0
831 832 -833 0
-553 -834 0
833 -834 0
553 -833 834 0
-827 835 0
-834 835 0
827 834 -835 0
552 -836 0
835 -836 0
-552 -835 836 0
570 -837 0
816 -837 0
-570 -816 837 0
-570 -838 0
813 -838 0
570 -813 838 0
-837 839 0
-838 839 0
837 838 -839 0
-552 -840 0
839 -840 0
552 -839 840 0
-836 841 0
-840 841 0
836 840 -841 0
-455 -842 0
841 -842 0
455 -841 842 0
-820 843 0
-842 843 0
820 842 -843 0
454 -844 0
843 -844 0
-454 -843 844 0
579 -845 0
816 -845 0
-579 -816 845 0
581 -846 0
816 -846 0
-581 -816 846 0
583 -847 0
816 -847 0
-583 -816 847 0
585 -848 0
816 -848 0
-585 -816 848 0
-585 -849 0
813 -849 0
585 -813 849 0
-848 850 0
-849 850 0
848 849 -850 0
-583 -851 0
850 -851 0
583 -850 851 0
-847 852 0
-851 852 0
847 851 -852 0
-581 -853 0
852 -853 0
581 -852 853 0
-846 854 0
-853 854 0
846 853 -854 0
-579 -855 0
854 -855 0
579 -854 855 0
-845 856 0
-855 856 0
845 855 -856 0
-454 -857 0
856 -857 0
454 -856 857 0
-844 858 0
-857 858 0
844 857 -858 0
453 -859 0
858 -859 0
-453 -858 859 0
600 -860 0
810 -860 0
-600 -810 860 0
-600 -861 0
807 -861 0
600 -807 861 0
-860 862 0
-861 862 0
860 861 -862 0
599 -863 0
862 -863 0
-599 -862 863 0
607 -864 0
810 -864 0
-607 -810 864 0
-607 -865 0
807 -865 0
607 -807 865 0
-864 866 0
-865 866 0
864 865 -866 0
866 -867 0
-611 -867 0
-866 611 867 0
866 -868 0
611 -868 0
-866 -611 868 0
-867 869 0
-868 869 0
867 868 -869 0
606 -870 0
869 -870 0
-606 -869 870 0
866 -871 0
-615 -871 0
-866 615 871 0
866 -872 0
615 -872 0
-866 -615 872 0
-871 873 0
-872 873 0
871 872 -873 0
614 -874 0
873 -874 0
-614 -873 874 0
-614 -875 0
866 -875 0
614 -866 875 0
-874 876 0
-875 876 0
874 875 -876 0
-606 -877 0
876 -877 0
606 -876 877 0
-870 878 0
-877 878 0
870 877 -878 0
605 -879 0
878 -879 0
-605 -878 879 0
623 -880 0
810 -880 0
-623 -810 880 0
-623 -881 0
807 -881 0
623 -807 881 0
-880 882 0
-881 882 0
880 881 -882 0
-605 -883 0
882 -883 0
605 -882 883 0
-879 884 0
-883 884 0
879 883 -884 0
-599 -885 0
884 -885 0
599 -884 885 0
-863 886 0
-885 886 0
863 885 -886 0
598 -887 0
886 -887 0
-598 -886 887 0
632 -888 0
810 -888 0
-632 -810 888 0
634 -889 0
810 -889 0
-634 -810 889 0
636 -890 0
810 -890 0
-636 -810 890 0
638 -891 0
810 -891 0
-638 -810 891 0
-638 -892 0
807 -892 0
638 -807 892 0
-891 893 0
-892 893 0
891 892 -893 0
-636 -894 0
893 -894 0
636 -893 894 0
-890 895 0
-894 895 0
890 894 -895 0
-634 -896 0
895 -896 0
634 -895 896 0
-889 897 0
-896 897 0
889 896 -897 0
-632 -898 0
897 -898 0
632 -897 898 0
-888 899 0
-898 899 0
888 898 -899 0
-598 -900 0
899 -900 0
598 -899 900 0
-887 901 0
-900 901 0
887 900 -901 0
-453 -902 0
901 -902 0
453 -901 902 0
-859 903 0
-902 903 0
859 902 -903 0
-778 -327 -904 0
778 327 -904 0
-778 327 904 0
778 -327 904 0
-903 -452 -905 0
903 452 -905 0
-903 452 905 0
903 -452 905 0
-904 -906 0
-905 -906 0
651 -906 0
904 905 -651 906 0
-200 906 0
